46
75
52	4
51	2
50	8
49	5
48	12
47	7
46	8
45	8
44	5
43	6
42	4
41	5
40	2
39	5
38	3
37	7
36	8
35	9
34	11
33	5
32	9
31	7
30	7
29	7
28	9
27	13
26	13
25	7
24	9
23	3
22	4
21	9
20	8
19	9
18	8
17	3
16	2
15	5
14	4
13	6
12	5
11	5
10	4
9	9
8	6
7	5
